============================[ Problem Statistics ]=============================|                                                                             ||  Number of variables:          4242                                         ||  Number of clauses:            9625                                         ||  Parse time:                   0.03 s                                       ||                                                                             |============================[ Search Statistics ]==============================| Conflicts |          ORIGINAL         |          LEARNT          | Progress ||           |    Vars  Clauses Literals |    Limit  Clauses Lit/Cl |          |==============================================================================================================================================================restarts              : 1conflicts             : 21             (500 /sec)decisions             : 108            (0.00 % random) (2571 /sec)propagations          : 8048           (191619 /sec)conflict literals     : 349            (94.61 % deleted)CPU time              : 0.042 sSATISFIABLE